BAYES
676
2 2 2 2 2 2 2 2 2 2 2 2 2 2 2 2 2 2 2 2 2 2 2 2 2 2 2 2 2 2 2 2 2 2 2 2 2 2 2 2 2 2 2 2 2 2 2 2 2 2 2 2 2 2 2 2 2 2 2 2 2 2 2 2 2 2 2 2 2 2 2 2 2 2 2 2 2 2 2 2 2 2 2 2 2 2 2 2 2 2 2 2 2 2 2 2 2 2 2 2 2 2 2 2 2 2 2 2 2 2 2 2 2 2 2 2 2 2 2 2 2 2 2 2 2 2 2 2 2 2 2 2 2 2 2 2 2 2 2 2 2 2 2 2 2 2 2 2 2 2 2 2 2 2 2 2 2 2 2 2 2 2 2 2 2 2 2 2 2 2 2 2 2 2 2 2 2 2 2 2 2 2 2 2 2 2 2 2 2 2 2 2 2 2 2 2 2 2 2 2 2 2 2 2 2 2 2 2 2 2 2 2 2 2 2 2 2 2 2 2 2 2 2 2 2 2 2 2 2 2 2 2 2 2 2 2 2 2 2 2 2 2 2 2 2 2 2 2 2 2 2 2 2 2 2 2 2 2 2 2 2 2 2 2 2 2 2 2 2 2 2 2 2 2 2 2 2 2 2 2 2 2 2 2 2 2 2 2 2 2 2 2 2 2 2 2 2 2 2 2 2 2 2 2 2 2 2 2 2 2 2 2 2 2 2 2 2 2 2 2 2 2 2 2 2 2 2 2 2 2 2 2 2 2 2 2 2 2 2 2 2 2 2 2 2 2 2 2 2 2 2 2 2 2 2 2 2 2 2 2 2 2 2 2 2 2 2 2 2 2 2 2 2 2 2 2 2 2 2 2 2 2 2 2 2 2 2 2 2 2 2 2 2 2 2 2 2 2 2 2 2 2 2 2 2 2 2 2 2 2 2 2 2 2 2 2 2 2 2 2 2 2 2 2 2 2 2 2 2 2 2 2 2 2 2 2 2 2 2 2 2 2 2 2 2 2 2 2 2 2 2 2 2 2 2 2 2 2 2 2 2 2 2 2 2 2 2 2 2 2 2 2 2 2 2 2 2 2 2 2 2 2 2 2 2 2 2 2 2 2 2 2 2 2 2 2 2 2 2 2 2 2 2 2 2 2 2 2 2 2 2 2 2 2 2 2 2 2 2 2 2 2 2 2 2 2 2 2 2 2 2 2 2 2 2 2 2 2 2 2 2 2 2 2 2 2 2 2 2 2 2 2 2 2 2 2 2 2 2 2 2 2 2 2 2 2 2 2 2 2 2 2 2 2 2 2 2 2 2 2 2 2 2 2 2 2 2 2 2 2 2 2 2 2 2 2 2 2 2 2 2 2 2 2 2 2 2 2 2 2 2 2 2 2 2 2 2 2 2 2 2 2 2 2 2 2 2 2 2 2 2 2 2 2 2 2 2 2 2 2 2 2 2 2 2 2 2 2 2 2 2 2 2 2 2 2 2 2 2 2 2 2 2 2 2 2 2 2 2 2 2 2 2 2 2 2
676
1 0
2 0 1
2 1 2
2 2 3
2 3 4
2 4 5
2 5 6
2 6 7
2 7 8
2 8 9
2 9 10
2 10 11
2 11 12
2 12 13
2 13 14
2 14 15
2 15 16
2 16 17
2 17 18
2 18 19
2 19 20
2 20 21
2 21 22
2 22 23
2 23 24
2 24 25
2 0 26
3 1 26 27
3 2 27 28
3 3 28 29
3 4 29 30
3 5 30 31
3 6 31 32
3 7 32 33
3 8 33 34
3 9 34 35
3 10 35 36
3 11 36 37
3 12 37 38
3 13 38 39
3 14 39 40
3 15 40 41
3 16 41 42
3 17 42 43
3 18 43 44
3 19 44 45
3 20 45 46
3 21 46 47
3 22 47 48
3 23 48 49
3 24 49 50
3 25 50 51
2 26 52
3 27 52 53
3 28 53 54
3 29 54 55
3 30 55 56
3 31 56 57
3 32 57 58
3 33 58 59
3 34 59 60
3 35 60 61
3 36 61 62
3 37 62 63
3 38 63 64
3 39 64 65
3 40 65 66
3 41 66 67
3 42 67 68
3 43 68 69
3 44 69 70
3 45 70 71
3 46 71 72
3 47 72 73
3 48 73 74
3 49 74 75
3 50 75 76
3 51 76 77
2 52 78
3 53 78 79
3 54 79 80
3 55 80 81
3 56 81 82
3 57 82 83
3 58 83 84
3 59 84 85
3 60 85 86
3 61 86 87
3 62 87 88
3 63 88 89
3 64 89 90
3 65 90 91
3 66 91 92
3 67 92 93
3 68 93 94
3 69 94 95
3 70 95 96
3 71 96 97
3 72 97 98
3 73 98 99
3 74 99 100
3 75 100 101
3 76 101 102
3 77 102 103
2 78 104
3 79 104 105
3 80 105 106
3 81 106 107
3 82 107 108
3 83 108 109
3 84 109 110
3 85 110 111
3 86 111 112
3 87 112 113
3 88 113 114
3 89 114 115
3 90 115 116
3 91 116 117
3 92 117 118
3 93 118 119
3 94 119 120
3 95 120 121
3 96 121 122
3 97 122 123
3 98 123 124
3 99 124 125
3 100 125 126
3 101 126 127
3 102 127 128
3 103 128 129
2 104 130
3 105 130 131
3 106 131 132
3 107 132 133
3 108 133 134
3 109 134 135
3 110 135 136
3 111 136 137
3 112 137 138
3 113 138 139
3 114 139 140
3 115 140 141
3 116 141 142
3 117 142 143
3 118 143 144
3 119 144 145
3 120 145 146
3 121 146 147
3 122 147 148
3 123 148 149
3 124 149 150
3 125 150 151
3 126 151 152
3 127 152 153
3 128 153 154
3 129 154 155
2 130 156
3 131 156 157
3 132 157 158
3 133 158 159
3 134 159 160
3 135 160 161
3 136 161 162
3 137 162 163
3 138 163 164
3 139 164 165
3 140 165 166
3 141 166 167
3 142 167 168
3 143 168 169
3 144 169 170
3 145 170 171
3 146 171 172
3 147 172 173
3 148 173 174
3 149 174 175
3 150 175 176
3 151 176 177
3 152 177 178
3 153 178 179
3 154 179 180
3 155 180 181
2 156 182
3 157 182 183
3 158 183 184
3 159 184 185
3 160 185 186
3 161 186 187
3 162 187 188
3 163 188 189
3 164 189 190
3 165 190 191
3 166 191 192
3 167 192 193
3 168 193 194
3 169 194 195
3 170 195 196
3 171 196 197
3 172 197 198
3 173 198 199
3 174 199 200
3 175 200 201
3 176 201 202
3 177 202 203
3 178 203 204
3 179 204 205
3 180 205 206
3 181 206 207
2 182 208
3 183 208 209
3 184 209 210
3 185 210 211
3 186 211 212
3 187 212 213
3 188 213 214
3 189 214 215
3 190 215 216
3 191 216 217
3 192 217 218
3 193 218 219
3 194 219 220
3 195 220 221
3 196 221 222
3 197 222 223
3 198 223 224
3 199 224 225
3 200 225 226
3 201 226 227
3 202 227 228
3 203 228 229
3 204 229 230
3 205 230 231
3 206 231 232
3 207 232 233
2 208 234
3 209 234 235
3 210 235 236
3 211 236 237
3 212 237 238
3 213 238 239
3 214 239 240
3 215 240 241
3 216 241 242
3 217 242 243
3 218 243 244
3 219 244 245
3 220 245 246
3 221 246 247
3 222 247 248
3 223 248 249
3 224 249 250
3 225 250 251
3 226 251 252
3 227 252 253
3 228 253 254
3 229 254 255
3 230 255 256
3 231 256 257
3 232 257 258
3 233 258 259
2 234 260
3 235 260 261
3 236 261 262
3 237 262 263
3 238 263 264
3 239 264 265
3 240 265 266
3 241 266 267
3 242 267 268
3 243 268 269
3 244 269 270
3 245 270 271
3 246 271 272
3 247 272 273
3 248 273 274
3 249 274 275
3 250 275 276
3 251 276 277
3 252 277 278
3 253 278 279
3 254 279 280
3 255 280 281
3 256 281 282
3 257 282 283
3 258 283 284
3 259 284 285
2 260 286
3 261 286 287
3 262 287 288
3 263 288 289
3 264 289 290
3 265 290 291
3 266 291 292
3 267 292 293
3 268 293 294
3 269 294 295
3 270 295 296
3 271 296 297
3 272 297 298
3 273 298 299
3 274 299 300
3 275 300 301
3 276 301 302
3 277 302 303
3 278 303 304
3 279 304 305
3 280 305 306
3 281 306 307
3 282 307 308
3 283 308 309
3 284 309 310
3 285 310 311
2 286 312
3 287 312 313
3 288 313 314
3 289 314 315
3 290 315 316
3 291 316 317
3 292 317 318
3 293 318 319
3 294 319 320
3 295 320 321
3 296 321 322
3 297 322 323
3 298 323 324
3 299 324 325
3 300 325 326
3 301 326 327
3 302 327 328
3 303 328 329
3 304 329 330
3 305 330 331
3 306 331 332
3 307 332 333
3 308 333 334
3 309 334 335
3 310 335 336
3 311 336 337
2 312 338
3 313 338 339
3 314 339 340
3 315 340 341
3 316 341 342
3 317 342 343
3 318 343 344
3 319 344 345
3 320 345 346
3 321 346 347
3 322 347 348
3 323 348 349
3 324 349 350
3 325 350 351
3 326 351 352
3 327 352 353
3 328 353 354
3 329 354 355
3 330 355 356
3 331 356 357
3 332 357 358
3 333 358 359
3 334 359 360
3 335 360 361
3 336 361 362
3 337 362 363
2 338 364
3 339 364 365
3 340 365 366
3 341 366 367
3 342 367 368
3 343 368 369
3 344 369 370
3 345 370 371
3 346 371 372
3 347 372 373
3 348 373 374
3 349 374 375
3 350 375 376
3 351 376 377
3 352 377 378
3 353 378 379
3 354 379 380
3 355 380 381
3 356 381 382
3 357 382 383
3 358 383 384
3 359 384 385
3 360 385 386
3 361 386 387
3 362 387 388
3 363 388 389
2 364 390
3 365 390 391
3 366 391 392
3 367 392 393
3 368 393 394
3 369 394 395
3 370 395 396
3 371 396 397
3 372 397 398
3 373 398 399
3 374 399 400
3 375 400 401
3 376 401 402
3 377 402 403
3 378 403 404
3 379 404 405
3 380 405 406
3 381 406 407
3 382 407 408
3 383 408 409
3 384 409 410
3 385 410 411
3 386 411 412
3 387 412 413
3 388 413 414
3 389 414 415
2 390 416
3 391 416 417
3 392 417 418
3 393 418 419
3 394 419 420
3 395 420 421
3 396 421 422
3 397 422 423
3 398 423 424
3 399 424 425
3 400 425 426
3 401 426 427
3 402 427 428
3 403 428 429
3 404 429 430
3 405 430 431
3 406 431 432
3 407 432 433
3 408 433 434
3 409 434 435
3 410 435 436
3 411 436 437
3 412 437 438
3 413 438 439
3 414 439 440
3 415 440 441
2 416 442
3 417 442 443
3 418 443 444
3 419 444 445
3 420 445 446
3 421 446 447
3 422 447 448
3 423 448 449
3 424 449 450
3 425 450 451
3 426 451 452
3 427 452 453
3 428 453 454
3 429 454 455
3 430 455 456
3 431 456 457
3 432 457 458
3 433 458 459
3 434 459 460
3 435 460 461
3 436 461 462
3 437 462 463
3 438 463 464
3 439 464 465
3 440 465 466
3 441 466 467
2 442 468
3 443 468 469
3 444 469 470
3 445 470 471
3 446 471 472
3 447 472 473
3 448 473 474
3 449 474 475
3 450 475 476
3 451 476 477
3 452 477 478
3 453 478 479
3 454 479 480
3 455 480 481
3 456 481 482
3 457 482 483
3 458 483 484
3 459 484 485
3 460 485 486
3 461 486 487
3 462 487 488
3 463 488 489
3 464 489 490
3 465 490 491
3 466 491 492
3 467 492 493
2 468 494
3 469 494 495
3 470 495 496
3 471 496 497
3 472 497 498
3 473 498 499
3 474 499 500
3 475 500 501
3 476 501 502
3 477 502 503
3 478 503 504
3 479 504 505
3 480 505 506
3 481 506 507
3 482 507 508
3 483 508 509
3 484 509 510
3 485 510 511
3 486 511 512
3 487 512 513
3 488 513 514
3 489 514 515
3 490 515 516
3 491 516 517
3 492 517 518
3 493 518 519
2 494 520
3 495 520 521
3 496 521 522
3 497 522 523
3 498 523 524
3 499 524 525
3 500 525 526
3 501 526 527
3 502 527 528
3 503 528 529
3 504 529 530
3 505 530 531
3 506 531 532
3 507 532 533
3 508 533 534
3 509 534 535
3 510 535 536
3 511 536 537
3 512 537 538
3 513 538 539
3 514 539 540
3 515 540 541
3 516 541 542
3 517 542 543
3 518 543 544
3 519 544 545
2 520 546
3 521 546 547
3 522 547 548
3 523 548 549
3 524 549 550
3 525 550 551
3 526 551 552
3 527 552 553
3 528 553 554
3 529 554 555
3 530 555 556
3 531 556 557
3 532 557 558
3 533 558 559
3 534 559 560
3 535 560 561
3 536 561 562
3 537 562 563
3 538 563 564
3 539 564 565
3 540 565 566
3 541 566 567
3 542 567 568
3 543 568 569
3 544 569 570
3 545 570 571
2 546 572
3 547 572 573
3 548 573 574
3 549 574 575
3 550 575 576
3 551 576 577
3 552 577 578
3 553 578 579
3 554 579 580
3 555 580 581
3 556 581 582
3 557 582 583
3 558 583 584
3 559 584 585
3 560 585 586
3 561 586 587
3 562 587 588
3 563 588 589
3 564 589 590
3 565 590 591
3 566 591 592
3 567 592 593
3 568 593 594
3 569 594 595
3 570 595 596
3 571 596 597
2 572 598
3 573 598 599
3 574 599 600
3 575 600 601
3 576 601 602
3 577 602 603
3 578 603 604
3 579 604 605
3 580 605 606
3 581 606 607
3 582 607 608
3 583 608 609
3 584 609 610
3 585 610 611
3 586 611 612
3 587 612 613
3 588 613 614
3 589 614 615
3 590 615 616
3 591 616 617
3 592 617 618
3 593 618 619
3 594 619 620
3 595 620 621
3 596 621 622
3 597 622 623
2 598 624
3 599 624 625
3 600 625 626
3 601 626 627
3 602 627 628
3 603 628 629
3 604 629 630
3 605 630 631
3 606 631 632
3 607 632 633
3 608 633 634
3 609 634 635
3 610 635 636
3 611 636 637
3 612 637 638
3 613 638 639
3 614 639 640
3 615 640 641
3 616 641 642
3 617 642 643
3 618 643 644
3 619 644 645
3 620 645 646
3 621 646 647
3 622 647 648
3 623 648 649
2 624 650
3 625 650 651
3 626 651 652
3 627 652 653
3 628 653 654
3 629 654 655
3 630 655 656
3 631 656 657
3 632 657 658
3 633 658 659
3 634 659 660
3 635 660 661
3 636 661 662
3 637 662 663
3 638 663 664
3 639 664 665
3 640 665 666
3 641 666 667
3 642 667 668
3 643 668 669
3 644 669 670
3 645 670 671
3 646 671 672
3 647 672 673
3 648 673 674
3 649 674 675

2
0.623673 0.376327
4
0.910205 0.089795 0.689936 0.310064
4
0.341453 0.658547 0.051234 0.948766
4
1.0 0.0 0.0 1.0
4
1.0 0.0 0.0 1.0
4
0.0 1.0 1.0 0.0
4
0.920391 0.0796086 0.735734 0.264266
4
0.0 1.0 1.0 0.0
4
0.251178 0.748822 0.838827 0.161173
4
0.428535 0.571465 0.675056 0.324944
4
0.0 1.0 1.0 0.0
4
1.0 0.0 0.0 1.0
4
1.0 0.0 0.0 1.0
4
0.0 1.0 1.0 0.0
4
1.0 0.0 0.0 1.0
4
0.0 1.0 1.0 0.0
4
1.0 0.0 0.0 1.0
4
1.0 0.0 0.0 1.0
4
0.0 1.0 1.0 0.0
4
1.0 0.0 0.0 1.0
4
0.0 1.0 1.0 0.0
4
0.568794 0.431206 0.427858 0.572142
4
0.0 1.0 1.0 0.0
4
0.0 1.0 1.0 0.0
4
0.0 1.0 1.0 0.0
4
1.0 0.0 0.0 1.0
4
0.0 1.0 1.0 0.0
8
0.60386 0.39614 0.504787 0.495213 0.198135 0.801865 0.9914 0.00860005
8
0.214399 0.785601 0.149866 0.850134 0.488171 0.511829 0.281897 0.718103
8
1.0 0.0 0.0 1.0 1.0 0.0 1.0 0.0
8
1.0 0.0 1.0 0.0 0.0 1.0 1.0 0.0
8
0.0 1.0 1.0 0.0 1.0 0.0 0.0 1.0
8
0.250894 0.749106 0.217211 0.782789 0.099734 0.900266 0.294498 0.705502
8
1.0 0.0 0.0 1.0 0.0 1.0 0.0 1.0
8
0.641777 0.358223 0.384075 0.615925 0.0396245 0.960376 0.129948 0.870052
8
1.0 0.0 0.0 1.0 1.0 0.0 1.0 0.0
8
0.64628 0.35372 0.0221807 0.977819 0.602029 0.397971 0.42211 0.57789
8
0.644497 0.355503 0.799194 0.200806 0.566356 0.433644 0.953649 0.0463507
8
0.0 1.0 0.0 1.0 0.0 1.0 1.0 0.0
8
0.0 1.0 1.0 0.0 0.0 1.0 0.0 1.0
8
0.0 1.0 1.0 0.0 1.0 0.0 0.0 1.0
8
0.022002 0.977998 0.655192 0.344808 0.427414 0.572586 0.750875 0.249125
8
1.0 0.0 0.0 1.0 0.0 1.0 1.0 0.0
8
1.0 0.0 1.0 0.0 1.0 0.0 0.0 1.0
8
1.0 0.0 0.0 1.0 1.0 0.0 1.0 0.0
8
1.0 0.0 1.0 0.0 1.0 0.0 0.0 1.0
8
0.0 1.0 0.0 1.0 1.0 0.0 1.0 0.0
8
0.533303 0.466697 0.579713 0.420287 0.555601 0.444399 0.960718 0.0392824
8
1.0 0.0 1.0 0.0 0.0 1.0 1.0 0.0
8
0.331992 0.668008 0.825216 0.174784 0.984678 0.0153224 0.174779 0.825221
8
0.705309 0.294691 0.22211 0.77789 0.838839 0.161161 0.0226125 0.977388
8
0.0859125 0.914087 0.908128 0.091872 0.712251 0.287749 0.41293 0.58707
4
0.0 1.0 1.0 0.0
8
1.0 0.0 0.0 1.0 1.0 0.0 0.0 1.0
8
0.0 1.0 1.0 0.0 1.0 0.0 1.0 0.0
8
0.514835 0.485165 0.558748 0.441252 0.335551 0.664449 0.275818 0.724182
8
0.160767 0.839233 0.260496 0.739504 0.0655201 0.93448 0.0164536 0.983546
8
0.28763 0.71237 0.855293 0.144707 0.988418 0.0115823 0.0561101 0.94389
8
0.896546 0.103454 0.768361 0.231639 0.354136 0.645864 0.428078 0.571922
8
0.0 1.0 1.0 0.0 1.0 0.0 1.0 0.0
8
1.0 0.0 1.0 0.0 0.0 1.0 0.0 1.0
8
1.0 0.0 1.0 0.0 0.0 1.0 0.0 1.0
8
0.0 1.0 0.0 1.0 1.0 0.0 1.0 0.0
8
1.0 0.0 1.0 0.0 0.0 1.0 1.0 0.0
8
0.0 1.0 1.0 0.0 0.0 1.0 0.0 1.0
8
1.0 0.0 0.0 1.0 0.0 1.0 0.0 1.0
8
0.0 1.0 1.0 0.0 1.0 0.0 0.0 1.0
8
0.0555606 0.944439 0.63192 0.36808 0.978858 0.0211418 0.825769 0.174231
8
1.0 0.0 0.0 1.0 0.0 1.0 0.0 1.0
8
0.0 1.0 0.0 1.0 0.0 1.0 1.0 0.0
8
1.0 0.0 0.0 1.0 0.0 1.0 0.0 1.0
8
0.0 1.0 0.0 1.0 1.0 0.0 0.0 1.0
8
0.0 1.0 0.0 1.0 1.0 0.0 1.0 0.0
8
0.0 1.0 0.0 1.0 1.0 0.0 0.0 1.0
8
1.0 0.0 0.0 1.0 0.0 1.0 1.0 0.0
8
0.0 1.0 1.0 0.0 0.0 1.0 1.0 0.0
8
0.0 1.0 1.0 0.0 1.0 0.0 0.0 1.0
8
0.0 1.0 0.0 1.0 0.0 1.0 1.0 0.0
4
0.0 1.0 1.0 0.0
8
0.760901 0.239099 0.289824 0.710176 0.174578 0.825422 0.845663 0.154337
8
0.41753 0.58247 0.756195 0.243805 0.281188 0.718812 0.134217 0.865783
8
0.0 1.0 1.0 0.0 1.0 0.0 0.0 1.0
8
0.601612 0.398388 0.00868604 0.991314 0.532069 0.467931 0.736836 0.263164
8
1.0 0.0 1.0 0.0 0.0 1.0 1.0 0.0
8
0.909427 0.0905728 0.637999 0.362001 0.371789 0.628211 0.641127 0.358873
8
1.0 0.0 0.0 1.0 1.0 0.0 0.0 1.0
8
1.0 0.0 1.0 0.0 0.0 1.0 1.0 0.0
8
0.0 1.0 1.0 0.0 1.0 0.0 1.0 0.0
8
0.0 1.0 0.0 1.0 1.0 0.0 0.0 1.0
8
1.0 0.0 0.0 1.0 1.0 0.0 1.0 0.0
8
1.0 0.0 1.0 0.0 0.0 1.0 1.0 0.0
8
0.158671 0.841329 0.887456 0.112544 0.326111 0.673889 0.542011 0.457989
8
1.0 0.0 1.0 0.0 1.0 0.0 0.0 1.0
8
0.0 1.0 0.0 1.0 1.0 0.0 1.0 0.0
8
0.0 1.0 0.0 1.0 0.0 1.0 1.0 0.0
8
0.438733 0.561267 0.493366 0.506634 0.928243 0.071757 0.706527 0.293473
8
0.3554 0.6446 0.939919 0.0600809 0.14985 0.85015 0.420556 0.579444
8
0.0 1.0 1.0 0.0 0.0 1.0 1.0 0.0
8
0.0 1.0 1.0 0.0 1.0 0.0 1.0 0.0
8
1.0 0.0 1.0 0.0 1.0 0.0 0.0 1.0
8
0.604937 0.395063 0.919364 0.0806359 0.121862 0.878138 0.0876029 0.912397
8
0.560595 0.439405 0.580969 0.419031 0.825003 0.174997 0.267122 0.732878
8
1.0 0.0 0.0 1.0 0.0 1.0 1.0 0.0
8
0.671647 0.328353 0.180186 0.819814 0.184699 0.815301 0.0716907 0.928309
4
0.0 1.0 1.0 0.0
8
0.0 1.0 1.0 0.0 1.0 0.0 0.0 1.0
8
1.0 0.0 1.0 0.0 0.0 1.0 0.0 1.0
8
1.0 0.0 0.0 1.0 1.0 0.0 0.0 1.0
8
1.0 0.0 0.0 1.0 0.0 1.0 0.0 1.0
8
0.0 1.0 0.0 1.0 1.0 0.0 0.0 1.0
8
0.321392 0.678608 0.91988 0.0801198 0.951284 0.0487157 0.622816 0.377184
8
0.996821 0.00317908 0.726881 0.273119 0.838565 0.161435 0.593892 0.406108
8
1.0 0.0 0.0 1.0 0.0 1.0 1.0 0.0
8
0.0 1.0 0.0 1.0 1.0 0.0 0.0 1.0
8
0.761101 0.238899 0.862002 0.137998 0.270014 0.729986 0.537101 0.462899
8
1.0 0.0 1.0 0.0 1.0 0.0 0.0 1.0
8
1.0 0.0 1.0 0.0 0.0 1.0 0.0 1.0
8
0.0566471 0.943353 0.50788 0.49212 0.622557 0.377443 0.895213 0.104787
8
1.0 0.0 0.0 1.0 0.0 1.0 1.0 0.0
8
1.0 0.0 0.0 1.0 1.0 0.0 0.0 1.0
8
0.936494 0.0635055 0.896558 0.103442 0.662423 0.337577 0.206509 0.793491
8
0.0 1.0 1.0 0.0 1.0 0.0 1.0 0.0
8
0.209122 0.790878 0.374614 0.625386 0.241097 0.758903 0.384324 0.615676
8
0.136773 0.863227 0.440971 0.559029 0.393554 0.606446 0.75933 0.24067
8
1.0 0.0 0.0 1.0 0.0 1.0 1.0 0.0
8
1.0 0.0 1.0 0.0 1.0 0.0 0.0 1.0
8
1.0 0.0 1.0 0.0 0.0 1.0 0.0 1.0
8
0.0 1.0 0.0 1.0 1.0 0.0 0.0 1.0
8
1.0 0.0 0.0 1.0 1.0 0.0 1.0 0.0
8
0.433127 0.566873 0.411739 0.588261 0.266988 0.733012 0.192457 0.807543
4
0.0 1.0 1.0 0.0
8
0.0 1.0 1.0 0.0 1.0 0.0 1.0 0.0
8
0.610738 0.389262 0.826023 0.173977 0.888091 0.111909 0.611966 0.388034
8
0.0 1.0 1.0 0.0 1.0 0.0 1.0 0.0
8
0.0 1.0 1.0 0.0 1.0 0.0 1.0 0.0
8
0.0 1.0 1.0 0.0 0.0 1.0 0.0 1.0
8
0.0 1.0 1.0 0.0 0.0 1.0 1.0 0.0
8
0.0 1.0 1.0 0.0 1.0 0.0 0.0 1.0
8
1.0 0.0 1.0 0.0 0.0 1.0 1.0 0.0
8
0.808089 0.191911 0.975331 0.0246691 0.0424 0.9576 0.568105 0.431895
8
0.0 1.0 1.0 0.0 0.0 1.0 1.0 0.0
8
0.0 1.0 1.0 0.0 1.0 0.0 0.0 1.0
8
0.0 1.0 1.0 0.0 1.0 0.0 0.0 1.0
8
1.0 0.0 1.0 0.0 1.0 0.0 0.0 1.0
8
0.0 1.0 1.0 0.0 0.0 1.0 1.0 0.0
8
1.0 0.0 0.0 1.0 1.0 0.0 0.0 1.0
8
0.0 1.0 0.0 1.0 0.0 1.0 1.0 0.0
8
0.0 1.0 0.0 1.0 0.0 1.0 1.0 0.0
8
1.0 0.0 0.0 1.0 0.0 1.0 0.0 1.0
8
1.0 0.0 1.0 0.0 1.0 0.0 0.0 1.0
8
0.0 1.0 0.0 1.0 1.0 0.0 1.0 0.0
8
1.0 0.0 0.0 1.0 0.0 1.0 0.0 1.0
8
0.527875 0.472125 0.90419 0.09581 0.173865 0.826135 0.061921 0.938079
8
1.0 0.0 1.0 0.0 1.0 0.0 0.0 1.0
8
1.0 0.0 0.0 1.0 0.0 1.0 1.0 0.0
8
1.0 0.0 1.0 0.0 1.0 0.0 0.0 1.0
4
1.0 0.0 0.0 1.0
8
1.0 0.0 0.0 1.0 0.0 1.0 0.0 1.0
8
0.0 1.0 0.0 1.0 1.0 0.0 0.0 1.0
8
1.0 0.0 1.0 0.0 0.0 1.0 0.0 1.0
8
1.0 0.0 0.0 1.0 0.0 1.0 0.0 1.0
8
0.695963 0.304037 0.882506 0.117494 0.295034 0.704966 0.989256 0.0107438
8
0.0 1.0 1.0 0.0 0.0 1.0 1.0 0.0
8
1.0 0.0 0.0 1.0 0.0 1.0 0.0 1.0
8
0.0 1.0 0.0 1.0 1.0 0.0 0.0 1.0
8
1.0 0.0 1.0 0.0 1.0 0.0 0.0 1.0
8
1.0 0.0 0.0 1.0 0.0 1.0 0.0 1.0
8
1.0 0.0 0.0 1.0 0.0 1.0 1.0 0.0
8
0.0 1.0 0.0 1.0 1.0 0.0 0.0 1.0
8
1.0 0.0 0.0 1.0 0.0 1.0 0.0 1.0
8
1.0 0.0 1.0 0.0 0.0 1.0 0.0 1.0
8
1.0 0.0 0.0 1.0 0.0 1.0 1.0 0.0
8
0.0 1.0 1.0 0.0 1.0 0.0 0.0 1.0
8
0.474614 0.525386 0.7805 0.2195 0.685882 0.314118 0.546228 0.453772
8
0.792983 0.207017 0.363433 0.636567 0.294399 0.705601 0.919948 0.0800522
8
0.506106 0.493894 0.987666 0.0123341 0.199216 0.800784 0.523463 0.476537
8
1.0 0.0 1.0 0.0 1.0 0.0 0.0 1.0
8
0.0 1.0 1.0 0.0 1.0 0.0 0.0 1.0
8
0.551907 0.448093 0.816657 0.183343 0.107793 0.892207 0.366042 0.633958
8
1.0 0.0 0.0 1.0 0.0 1.0 0.0 1.0
8
0.0 1.0 1.0 0.0 1.0 0.0 1.0 0.0
8
0.0 1.0 1.0 0.0 0.0 1.0 1.0 0.0
4
0.839293 0.160707 0.0928551 0.907145
8
0.0259498 0.97405 0.635289 0.364711 0.644013 0.355987 0.876851 0.123149
8
1.0 0.0 1.0 0.0 0.0 1.0 1.0 0.0
8
0.0 1.0 0.0 1.0 0.0 1.0 1.0 0.0
8
0.409445 0.590555 0.975828 0.0241721 0.305248 0.694752 0.917629 0.0823709
8
1.0 0.0 0.0 1.0 1.0 0.0 1.0 0.0
8
1.0 0.0 0.0 1.0 0.0 1.0 1.0 0.0
8
0.0 1.0 0.0 1.0 1.0 0.0 1.0 0.0
8
1.0 0.0 0.0 1.0 1.0 0.0 1.0 0.0
8
1.0 0.0 1.0 0.0 0.0 1.0 1.0 0.0
8
1.0 0.0 0.0 1.0 1.0 0.0 1.0 0.0
8
0.0 1.0 1.0 0.0 0.0 1.0 1.0 0.0
8
1.0 0.0 1.0 0.0 0.0 1.0 0.0 1.0
8
1.0 0.0 0.0 1.0 0.0 1.0 0.0 1.0
8
0.0 1.0 0.0 1.0 1.0 0.0 0.0 1.0
8
0.0 1.0 1.0 0.0 0.0 1.0 1.0 0.0
8
1.0 0.0 1.0 0.0 0.0 1.0 0.0 1.0
8
0.0 1.0 0.0 1.0 0.0 1.0 1.0 0.0
8
1.0 0.0 0.0 1.0 1.0 0.0 1.0 0.0
8
0.0448104 0.95519 0.00118667 0.998813 0.50233 0.49767 0.759672 0.240328
8
0.515262 0.484738 0.0351955 0.964805 0.346118 0.653882 0.893835 0.106165
8
1.0 0.0 1.0 0.0 0.0 1.0 1.0 0.0
8
0.0 1.0 1.0 0.0 0.0 1.0 0.0 1.0
8
0.0 1.0 0.0 1.0 1.0 0.0 1.0 0.0
8
0.0 1.0 1.0 0.0 0.0 1.0 1.0 0.0
8
0.496935 0.503065 0.676146 0.323854 0.294277 0.705723 0.256607 0.743393
4
0.0 1.0 1.0 0.0
8
0.0 1.0 1.0 0.0 1.0 0.0 1.0 0.0
8
0.0 1.0 0.0 1.0 0.0 1.0 1.0 0.0
8
1.0 0.0 1.0 0.0 1.0 0.0 0.0 1.0
8
1.0 0.0 1.0 0.0 1.0 0.0 0.0 1.0
8
1.0 0.0 0.0 1.0 0.0 1.0 0.0 1.0
8
0.0 1.0 1.0 0.0 1.0 0.0 1.0 0.0
8
0.0 1.0 1.0 0.0 0.0 1.0 1.0 0.0
8
0.51711 0.48289 0.174429 0.825571 0.739564 0.260436 0.131302 0.868698
8
0.0 1.0 1.0 0.0 0.0 1.0 1.0 0.0
8
0.0 1.0 0.0 1.0 0.0 1.0 1.0 0.0
8
1.0 0.0 0.0 1.0 1.0 0.0 1.0 0.0
8
1.0 0.0 0.0 1.0 1.0 0.0 0.0 1.0
8
1.0 0.0 0.0 1.0 0.0 1.0 1.0 0.0
8
0.644014 0.355986 0.643412 0.356588 0.0791282 0.920872 0.383578 0.616422
8
0.256551 0.743449 0.231004 0.768996 0.787508 0.212492 0.824111 0.175889
8
1.0 0.0 1.0 0.0 0.0 1.0 0.0 1.0
8
0.202466 0.797534 0.455644 0.544356 0.61538 0.38462 0.297321 0.702679
8
0.0 1.0 0.0 1.0 1.0 0.0 1.0 0.0
8
0.316871 0.683129 0.366344 0.633656 0.0158655 0.984135 0.0701324 0.929868
8
1.0 0.0 0.0 1.0 0.0 1.0 0.0 1.0
8
0.0 1.0 1.0 0.0 0.0 1.0 0.0 1.0
8
0.0 1.0 0.0 1.0 1.0 0.0 0.0 1.0
8
0.0 1.0 1.0 0.0 1.0 0.0 1.0 0.0
8
1.0 0.0 1.0 0.0 1.0 0.0 0.0 1.0
8
0.903228 0.0967717 0.446319 0.553681 0.82384 0.17616 0.973361 0.0266393
4
0.744404 0.255596 0.687507 0.312493
8
1.0 0.0 1.0 0.0 1.0 0.0 0.0 1.0
8
0.0 1.0 1.0 0.0 1.0 0.0 0.0 1.0
8
1.0 0.0 0.0 1.0 1.0 0.0 1.0 0.0
8
0.212762 0.787238 0.173348 0.826652 0.42323 0.57677 0.961428 0.0385721
8
1.0 0.0 0.0 1.0 0.0 1.0 1.0 0.0
8
0.0 1.0 1.0 0.0 0.0 1.0 1.0 0.0
8
1.0 0.0 0.0 1.0 0.0 1.0 0.0 1.0
8
1.0 0.0 0.0 1.0 0.0 1.0 0.0 1.0
8
0.952001 0.0479993 0.461054 0.538946 0.233997 0.766003 0.100264 0.899736
8
0.0 1.0 0.0 1.0 1.0 0.0 0.0 1.0
8
1.0 0.0 1.0 0.0 0.0 1.0 0.0 1.0
8
1.0 0.0 0.0 1.0 1.0 0.0 1.0 0.0
8
1.0 0.0 0.0 1.0 0.0 1.0 0.0 1.0
8
1.0 0.0 1.0 0.0 0.0 1.0 1.0 0.0
8
0.0 1.0 1.0 0.0 0.0 1.0 0.0 1.0
8
0.449258 0.550742 0.70132 0.29868 0.602576 0.397424 0.944198 0.0558023
8
0.371243 0.628757 0.448724 0.551276 0.29163 0.70837 0.999391 0.000609298
8
0.0952081 0.904792 0.310858 0.689142 0.169581 0.830419 0.325472 0.674528
8
0.0 1.0 1.0 0.0 0.0 1.0 0.0 1.0
8
1.0 0.0 0.0 1.0 0.0 1.0 1.0 0.0
8
0.811519 0.188481 0.668295 0.331705 0.214025 0.785975 0.189068 0.810932
8
0.0 1.0 0.0 1.0 1.0 0.0 0.0 1.0
8
0.0 1.0 1.0 0.0 1.0 0.0 1.0 0.0
8
1.0 0.0 1.0 0.0 0.0 1.0 1.0 0.0
8
1.0 0.0 0.0 1.0 1.0 0.0 1.0 0.0
4
1.0 0.0 0.0 1.0
8
0.0 1.0 1.0 0.0 1.0 0.0 0.0 1.0
8
1.0 0.0 0.0 1.0 0.0 1.0 1.0 0.0
8
0.0 1.0 1.0 0.0 0.0 1.0 1.0 0.0
8
0.0 1.0 1.0 0.0 0.0 1.0 1.0 0.0
8
0.665213 0.334787 0.627424 0.372576 0.239327 0.760673 0.778887 0.221113
8
0.0 1.0 0.0 1.0 0.0 1.0 1.0 0.0
8
0.0 1.0 1.0 0.0 0.0 1.0 1.0 0.0
8
0.0 1.0 1.0 0.0 1.0 0.0 0.0 1.0
8
1.0 0.0 0.0 1.0 0.0 1.0 0.0 1.0
8
1.0 0.0 0.0 1.0 0.0 1.0 1.0 0.0
8
0.0 1.0 1.0 0.0 1.0 0.0 0.0 1.0
8
1.0 0.0 0.0 1.0 1.0 0.0 1.0 0.0
8
1.0 0.0 1.0 0.0 0.0 1.0 1.0 0.0
8
1.0 0.0 1.0 0.0 0.0 1.0 1.0 0.0
8
0.0 1.0 0.0 1.0 1.0 0.0 0.0 1.0
8
0.0 1.0 1.0 0.0 0.0 1.0 0.0 1.0
8
0.179598 0.820402 0.607046 0.392954 0.641439 0.358561 0.31019 0.68981
8
1.0 0.0 0.0 1.0 1.0 0.0 1.0 0.0
8
1.0 0.0 0.0 1.0 1.0 0.0 1.0 0.0
8
0.0 1.0 1.0 0.0 1.0 0.0 0.0 1.0
8
0.0 1.0 1.0 0.0 0.0 1.0 0.0 1.0
8
1.0 0.0 0.0 1.0 1.0 0.0 1.0 0.0
8
0.0 1.0 1.0 0.0 0.0 1.0 0.0 1.0
8
0.608396 0.391604 0.65432 0.34568 0.416024 0.583976 0.784033 0.215967
8
1.0 0.0 1.0 0.0 0.0 1.0 1.0 0.0
4
0.0 1.0 1.0 0.0
8
0.410395 0.589605 0.0940091 0.905991 0.512989 0.487011 0.640003 0.359997
8
1.0 0.0 0.0 1.0 1.0 0.0 0.0 1.0
8
0.0 1.0 1.0 0.0 1.0 0.0 1.0 0.0
8
0.0 1.0 1.0 0.0 1.0 0.0 1.0 0.0
8
1.0 0.0 1.0 0.0 0.0 1.0 1.0 0.0
8
0.854467 0.145533 0.0925349 0.907465 0.388029 0.611971 0.90388 0.0961198
8
1.0 0.0 1.0 0.0 1.0 0.0 0.0 1.0
8
0.0 1.0 1.0 0.0 0.0 1.0 0.0 1.0
8
0.0 1.0 0.0 1.0 0.0 1.0 1.0 0.0
8
0.0 1.0 0.0 1.0 1.0 0.0 0.0 1.0
8
0.860345 0.139655 0.251663 0.748337 0.147741 0.852259 0.0818438 0.918156
8
0.0 1.0 1.0 0.0 1.0 0.0 1.0 0.0
8
0.0 1.0 0.0 1.0 0.0 1.0 1.0 0.0
8
1.0 0.0 0.0 1.0 1.0 0.0 1.0 0.0
8
1.0 0.0 1.0 0.0 0.0 1.0 0.0 1.0
8
1.0 0.0 0.0 1.0 0.0 1.0 0.0 1.0
8
1.0 0.0 0.0 1.0 1.0 0.0 1.0 0.0
8
1.0 0.0 0.0 1.0 0.0 1.0 0.0 1.0
8
1.0 0.0 1.0 0.0 1.0 0.0 0.0 1.0
8
0.0 1.0 1.0 0.0 1.0 0.0 1.0 0.0
8
0.0 1.0 1.0 0.0 1.0 0.0 0.0 1.0
8
0.810601 0.189399 0.676552 0.323448 0.215672 0.784328 0.564876 0.435124
8
0.36226 0.63774 0.570814 0.429186 0.0533873 0.946613 0.590692 0.409308
8
0.317884 0.682116 0.993503 0.00649706 0.5792 0.4208 0.488469 0.511531
8
0.222691 0.777309 0.879417 0.120583 0.851487 0.148513 0.476055 0.523945
4
0.0 1.0 1.0 0.0
8
1.0 0.0 1.0 0.0 1.0 0.0 0.0 1.0
8
0.673248 0.326752 0.929915 0.0700851 0.477897 0.522103 0.602677 0.397323
8
1.0 0.0 0.0 1.0 0.0 1.0 1.0 0.0
8
0.0 1.0 1.0 0.0 0.0 1.0 1.0 0.0
8
0.0 1.0 0.0 1.0 1.0 0.0 1.0 0.0
8
0.0 1.0 1.0 0.0 1.0 0.0 1.0 0.0
8
0.575434 0.424566 0.2327 0.7673 0.183434 0.816566 0.358008 0.641992
8
1.0 0.0 1.0 0.0 1.0 0.0 0.0 1.0
8
1.0 0.0 1.0 0.0 0.0 1.0 1.0 0.0
8
0.632891 0.367109 0.49748 0.50252 0.749149 0.250851 0.404193 0.595807
8
1.0 0.0 1.0 0.0 0.0 1.0 0.0 1.0
8
0.845925 0.154075 0.555962 0.444038 0.409088 0.590912 0.779656 0.220344
8
0.0 1.0 1.0 0.0 0.0 1.0 0.0 1.0
8
0.0 1.0 1.0 0.0 0.0 1.0 0.0 1.0
8
1.0 0.0 0.0 1.0 1.0 0.0 0.0 1.0
8
0.463459 0.536541 0.573826 0.426174 0.705413 0.294587 0.867652 0.132348
8
1.0 0.0 1.0 0.0 0.0 1.0 1.0 0.0
8
0.961266 0.0387338 0.198601 0.801399 0.309038 0.690962 0.740922 0.259078
8
0.70446 0.29554 0.0960112 0.903989 0.802648 0.197352 0.283315 0.716685
8
0.366472 0.633528 0.0344881 0.965512 0.553461 0.446539 0.505663 0.494337
8
0.0 1.0 1.0 0.0 1.0 0.0 0.0 1.0
8
1.0 0.0 0.0 1.0 0.0 1.0 0.0 1.0
8
0.0 1.0 1.0 0.0 0.0 1.0 1.0 0.0
8
1.0 0.0 1.0 0.0 1.0 0.0 0.0 1.0
8
0.0435238 0.956476 0.25154 0.74846 0.603148 0.396852 0.326839 0.673161
4
1.0 0.0 0.0 1.0
8
1.0 0.0 1.0 0.0 0.0 1.0 1.0 0.0
8
1.0 0.0 1.0 0.0 1.0 0.0 0.0 1.0
8
1.0 0.0 0.0 1.0 1.0 0.0 1.0 0.0
8
0.875353 0.124647 0.13354 0.86646 0.787473 0.212527 0.28996 0.71004
8
1.0 0.0 1.0 0.0 0.0 1.0 1.0 0.0
8
1.0 0.0 0.0 1.0 1.0 0.0 0.0 1.0
8
0.371787 0.628213 0.89832 0.10168 0.655429 0.344571 0.917643 0.0823569
8
1.0 0.0 1.0 0.0 0.0 1.0 0.0 1.0
8
0.891456 0.108544 0.472809 0.527191 0.387128 0.612872 0.313469 0.686531
8
0.144575 0.855425 0.188822 0.811178 0.0222631 0.977737 0.932048 0.0679516
8
0.0 1.0 0.0 1.0 1.0 0.0 0.0 1.0
8
1.0 0.0 1.0 0.0 0.0 1.0 0.0 1.0
8
0.583773 0.416227 0.750765 0.249235 0.697068 0.302932 0.239203 0.760797
8
1.0 0.0 1.0 0.0 0.0 1.0 1.0 0.0
8
0.0 1.0 1.0 0.0 1.0 0.0 1.0 0.0
8
0.0 1.0 0.0 1.0 1.0 0.0 0.0 1.0
8
0.0 1.0 0.0 1.0 1.0 0.0 0.0 1.0
8
0.0 1.0 1.0 0.0 0.0 1.0 0.0 1.0
8
0.0 1.0 1.0 0.0 0.0 1.0 1.0 0.0
8
1.0 0.0 0.0 1.0 1.0 0.0 0.0 1.0
8
0.603307 0.396693 0.315859 0.684141 0.691344 0.308656 0.644416 0.355584
8
1.0 0.0 0.0 1.0 1.0 0.0 1.0 0.0
8
0.303614 0.696386 0.289424 0.710576 0.124151 0.875849 0.939266 0.0607338
8
1.0 0.0 0.0 1.0 0.0 1.0 1.0 0.0
8
0.370888 0.629112 0.373911 0.626089 0.218846 0.781154 0.08618 0.91382
4
0.0 1.0 1.0 0.0
8
0.614646 0.385354 0.223278 0.776722 0.418431 0.581569 0.367538 0.632462
8
0.734291 0.265709 0.0588815 0.941119 0.471002 0.528998 0.0939267 0.906073
8
1.0 0.0 1.0 0.0 0.0 1.0 0.0 1.0
8
0.234781 0.765219 0.373086 0.626914 0.929041 0.0709587 0.367969 0.632031
8
0.12526 0.87474 0.720633 0.279367 0.561829 0.438171 0.95741 0.0425902
8
1.0 0.0 1.0 0.0 0.0 1.0 0.0 1.0
8
1.0 0.0 0.0 1.0 1.0 0.0 1.0 0.0
8
0.0 1.0 1.0 0.0 0.0 1.0 1.0 0.0
8
0.272176 0.727824 0.943391 0.0566088 0.826958 0.173042 0.521111 0.478889
8
0.0617392 0.938261 0.894197 0.105803 0.862208 0.137792 0.429708 0.570292
8
0.987468 0.0125323 0.150342 0.849658 0.358228 0.641772 0.944878 0.0551225
8
0.0 1.0 0.0 1.0 1.0 0.0 0.0 1.0
8
0.0 1.0 1.0 0.0 0.0 1.0 1.0 0.0
8
0.0 1.0 1.0 0.0 0.0 1.0 0.0 1.0
8
0.988145 0.0118545 0.223085 0.776915 0.692969 0.307031 0.509256 0.490744
8
1.0 0.0 1.0 0.0 0.0 1.0 1.0 0.0
8
0.0 1.0 1.0 0.0 0.0 1.0 1.0 0.0
8
0.0 1.0 1.0 0.0 0.0 1.0 0.0 1.0
8
1.0 0.0 0.0 1.0 1.0 0.0 0.0 1.0
8
1.0 0.0 0.0 1.0 0.0 1.0 1.0 0.0
8
1.0 0.0 0.0 1.0 1.0 0.0 0.0 1.0
8
0.966983 0.0330171 0.822343 0.177657 0.249826 0.750174 0.985441 0.0145586
8
0.0 1.0 1.0 0.0 1.0 0.0 0.0 1.0
8
0.918137 0.0818629 0.85981 0.14019 0.0141085 0.985891 0.914323 0.0856773
8
0.0 1.0 0.0 1.0 1.0 0.0 1.0 0.0
4
0.0 1.0 1.0 0.0
8
1.0 0.0 0.0 1.0 1.0 0.0 1.0 0.0
8
1.0 0.0 0.0 1.0 0.0 1.0 0.0 1.0
8
1.0 0.0 1.0 0.0 1.0 0.0 0.0 1.0
8
0.0 1.0 1.0 0.0 1.0 0.0 1.0 0.0
8
0.0 1.0 0.0 1.0 1.0 0.0 0.0 1.0
8
0.65999 0.34001 0.435427 0.564573 0.558084 0.441916 0.297241 0.702759
8
1.0 0.0 0.0 1.0 1.0 0.0 0.0 1.0
8
0.00595155 0.994048 0.346412 0.653588 0.551924 0.448076 0.716899 0.283101
8
1.0 0.0 0.0 1.0 0.0 1.0 1.0 0.0
8
1.0 0.0 1.0 0.0 0.0 1.0 0.0 1.0
8
0.78436 0.21564 0.658045 0.341955 0.406848 0.593152 0.331347 0.668653
8
0.0 1.0 0.0 1.0 0.0 1.0 1.0 0.0
8
0.0 1.0 0.0 1.0 0.0 1.0 1.0 0.0
8
0.0 1.0 1.0 0.0 0.0 1.0 0.0 1.0
8
0.0 1.0 1.0 0.0 0.0 1.0 0.0 1.0
8
1.0 0.0 1.0 0.0 0.0 1.0 0.0 1.0
8
0.543789 0.456211 0.518045 0.481955 0.616638 0.383362 0.950637 0.0493629
8
0.16462 0.83538 0.289423 0.710577 0.840729 0.159271 0.148029 0.851971
8
0.0 1.0 1.0 0.0 1.0 0.0 0.0 1.0
8
1.0 0.0 0.0 1.0 0.0 1.0 0.0 1.0
8
0.690264 0.309736 0.123003 0.876997 0.0136815 0.986319 0.829488 0.170512
8
1.0 0.0 0.0 1.0 0.0 1.0 1.0 0.0
8
0.940747 0.0592534 0.875315 0.124685 0.308566 0.691434 0.557384 0.442616
8
0.157958 0.842042 0.722004 0.277996 0.115376 0.884624 0.998688 0.0013122
8
0.301669 0.698331 0.127995 0.872005 0.615388 0.384612 0.877017 0.122983
4
0.0994448 0.900555 0.855351 0.144649
8
0.0 1.0 1.0 0.0 0.0 1.0 0.0 1.0
8
0.0 1.0 1.0 0.0 0.0 1.0 1.0 0.0
8
0.137293 0.862707 0.297852 0.702148 0.695264 0.304736 0.0780395 0.92196
8
0.0 1.0 1.0 0.0 0.0 1.0 1.0 0.0
8
0.0 1.0 1.0 0.0 1.0 0.0 1.0 0.0
8
1.0 0.0 0.0 1.0 1.0 0.0 1.0 0.0
8
0.270448 0.729552 0.731616 0.268384 0.172343 0.827657 0.288868 0.711132
8
0.0 1.0 1.0 0.0 0.0 1.0 1.0 0.0
8
0.0 1.0 1.0 0.0 1.0 0.0 1.0 0.0
8
0.740613 0.259387 0.443597 0.556403 0.971833 0.0281668 0.902402 0.0975979
8
0.0863294 0.913671 0.0628788 0.937121 0.0284846 0.971515 0.502495 0.497505
8
0.0 1.0 1.0 0.0 1.0 0.0 1.0 0.0
8
0.451849 0.548151 0.0840728 0.915927 0.675827 0.324173 0.624192 0.375808
8
0.0 1.0 1.0 0.0 1.0 0.0 1.0 0.0
8
1.0 0.0 0.0 1.0 1.0 0.0 0.0 1.0
8
1.0 0.0 1.0 0.0 0.0 1.0 0.0 1.0
8
0.0 1.0 0.0 1.0 0.0 1.0 1.0 0.0
8
0.0 1.0 0.0 1.0 1.0 0.0 0.0 1.0
8
1.0 0.0 1.0 0.0 1.0 0.0 0.0 1.0
8
0.0 1.0 1.0 0.0 0.0 1.0 0.0 1.0
8
0.0 1.0 1.0 0.0 1.0 0.0 0.0 1.0
8
0.0 1.0 0.0 1.0 0.0 1.0 1.0 0.0
8
1.0 0.0 1.0 0.0 1.0 0.0 0.0 1.0
8
0.446287 0.553713 0.281667 0.718333 0.198174 0.801826 0.180342 0.819658
8
0.0 1.0 1.0 0.0 0.0 1.0 1.0 0.0
4
0.0 1.0 1.0 0.0
8
1.0 0.0 0.0 1.0 1.0 0.0 0.0 1.0
8
0.0 1.0 1.0 0.0 1.0 0.0 1.0 0.0
8
0.0 1.0 1.0 0.0 0.0 1.0 1.0 0.0
8
1.0 0.0 0.0 1.0 0.0 1.0 0.0 1.0
8
0.60089 0.39911 0.408352 0.591648 0.0514279 0.948572 0.308517 0.691483
8
0.641651 0.358349 0.0662963 0.933704 0.0380809 0.961919 0.755284 0.244716
8
1.0 0.0 1.0 0.0 0.0 1.0 0.0 1.0
8
1.0 0.0 0.0 1.0 0.0 1.0 1.0 0.0
8
0.0 1.0 1.0 0.0 1.0 0.0 1.0 0.0
8
0.0 1.0 0.0 1.0 1.0 0.0 0.0 1.0
8
1.0 0.0 0.0 1.0 1.0 0.0 0.0 1.0
8
0.867794 0.132206 0.92206 0.0779396 0.596593 0.403407 0.901579 0.0984208
8
0.0 1.0 1.0 0.0 1.0 0.0 1.0 0.0
8
0.0924044 0.907596 0.832734 0.167266 0.794167 0.205833 0.604236 0.395764
8
1.0 0.0 0.0 1.0 1.0 0.0 1.0 0.0
8
0.0 1.0 1.0 0.0 0.0 1.0 0.0 1.0
8
1.0 0.0 0.0 1.0 0.0 1.0 0.0 1.0
8
0.0 1.0 1.0 0.0 1.0 0.0 0.0 1.0
8
0.0 1.0 0.0 1.0 1.0 0.0 0.0 1.0
8
0.0 1.0 0.0 1.0 1.0 0.0 0.0 1.0
8
0.506815 0.493185 0.956642 0.0433582 0.0881151 0.911885 0.0458578 0.954142
8
0.0 1.0 1.0 0.0 0.0 1.0 0.0 1.0
8
0.0 1.0 1.0 0.0 0.0 1.0 0.0 1.0
8
0.0 1.0 1.0 0.0 0.0 1.0 1.0 0.0
8
0.0 1.0 0.0 1.0 1.0 0.0 1.0 0.0
4
1.0 0.0 0.0 1.0
8
0.0 1.0 1.0 0.0 0.0 1.0 1.0 0.0
8
0.0 1.0 1.0 0.0 0.0 1.0 0.0 1.0
8
0.0 1.0 0.0 1.0 1.0 0.0 0.0 1.0
8
0.0 1.0 0.0 1.0 1.0 0.0 1.0 0.0
8
0.0 1.0 1.0 0.0 0.0 1.0 1.0 0.0
8
0.0 1.0 0.0 1.0 1.0 0.0 0.0 1.0
8
1.0 0.0 0.0 1.0 1.0 0.0 1.0 0.0
8
0.192805 0.807195 0.177492 0.822508 0.471664 0.528336 0.848204 0.151796
8
1.0 0.0 0.0 1.0 0.0 1.0 0.0 1.0
8
0.582171 0.417829 0.520886 0.479114 0.0359281 0.964072 0.663151 0.336849
8
0.657236 0.342764 0.0418732 0.958127 0.713622 0.286378 0.475005 0.524995
8
1.0 0.0 1.0 0.0 0.0 1.0 1.0 0.0
8
1.0 0.0 1.0 0.0 0.0 1.0 0.0 1.0
8
0.0 1.0 0.0 1.0 1.0 0.0 1.0 0.0
8
0.0 1.0 1.0 0.0 0.0 1.0 0.0 1.0
8
1.0 0.0 0.0 1.0 0.0 1.0 1.0 0.0
8
0.408641 0.591359 0.354481 0.645519 0.866435 0.133565 0.122263 0.877737
8
0.279021 0.720979 0.885815 0.114185 0.807442 0.192558 0.522372 0.477628
8
1.0 0.0 0.0 1.0 1.0 0.0 0.0 1.0
8
0.0 1.0 0.0 1.0 0.0 1.0 1.0 0.0
8
0.0 1.0 1.0 0.0 1.0 0.0 1.0 0.0
8
1.0 0.0 0.0 1.0 0.0 1.0 1.0 0.0
8
0.0 1.0 1.0 0.0 1.0 0.0 0.0 1.0
8
0.0 1.0 1.0 0.0 1.0 0.0 0.0 1.0
8
0.322269 0.677731 0.448996 0.551004 0.214148 0.785852 0.736364 0.263636
4
0.77149 0.22851 0.241216 0.758784
8
1.0 0.0 0.0 1.0 1.0 0.0 0.0 1.0
8
0.0923735 0.907626 0.54532 0.45468 0.168226 0.831774 0.327641 0.672359
8
1.0 0.0 1.0 0.0 1.0 0.0 0.0 1.0
8
1.0 0.0 0.0 1.0 1.0 0.0 1.0 0.0
8
0.0 1.0 1.0 0.0 0.0 1.0 0.0 1.0
8
0.264829 0.735171 0.0346021 0.965398 0.54188 0.45812 0.0363196 0.96368
8
0.0 1.0 1.0 0.0 0.0 1.0 1.0 0.0
8
0.0 1.0 1.0 0.0 0.0 1.0 0.0 1.0
8
1.0 0.0 0.0 1.0 1.0 0.0 1.0 0.0
8
0.0 1.0 0.0 1.0 0.0 1.0 1.0 0.0
8
0.0 1.0 1.0 0.0 0.0 1.0 0.0 1.0
8
1.0 0.0 0.0 1.0 1.0 0.0 1.0 0.0
8
0.0 1.0 0.0 1.0 1.0 0.0 0.0 1.0
8
0.0 1.0 0.0 1.0 1.0 0.0 0.0 1.0
8
0.952026 0.0479738 0.112638 0.887362 0.582539 0.417461 0.0173231 0.982677
8
0.0365523 0.963448 0.235753 0.764247 0.952947 0.0470535 0.466535 0.533465
8
0.0124792 0.987521 0.194755 0.805245 0.130192 0.869808 0.336841 0.663159
8
0.0118875 0.988113 0.697523 0.302477 0.996219 0.00378139 0.734408 0.265592
8
0.619167 0.380833 0.221724 0.778276 0.408494 0.591506 0.775161 0.224839
8
1.0 0.0 0.0 1.0 1.0 0.0 0.0 1.0
8
1.0 0.0 1.0 0.0 1.0 0.0 0.0 1.0
8
1.0 0.0 1.0 0.0 0.0 1.0 0.0 1.0
8
1.0 0.0 0.0 1.0 1.0 0.0 1.0 0.0
8
0.0 1.0 0.0 1.0 1.0 0.0 1.0 0.0
8
1.0 0.0 0.0 1.0 1.0 0.0 1.0 0.0
4
0.0 1.0 1.0 0.0
8
0.0 1.0 1.0 0.0 1.0 0.0 0.0 1.0
8
0.0 1.0 1.0 0.0 1.0 0.0 0.0 1.0
8
0.0 1.0 1.0 0.0 1.0 0.0 1.0 0.0
8
1.0 0.0 0.0 1.0 0.0 1.0 1.0 0.0
8
0.0 1.0 0.0 1.0 0.0 1.0 1.0 0.0
8
1.0 0.0 0.0 1.0 1.0 0.0 1.0 0.0
8
0.693647 0.306353 0.821121 0.178879 0.291258 0.708742 0.412989 0.587011
8
0.687494 0.312506 0.764934 0.235066 0.596391 0.403609 0.626528 0.373472
8
0.207204 0.792796 0.144912 0.855088 0.654354 0.345646 0.567781 0.432219
8
0.0 1.0 1.0 0.0 1.0 0.0 0.0 1.0
8
0.517217 0.482783 0.775808 0.224192 0.931017 0.0689834 0.714781 0.285219
8
1.0 0.0 1.0 0.0 1.0 0.0 0.0 1.0
8
1.0 0.0 0.0 1.0 1.0 0.0 0.0 1.0
8
0.0 1.0 0.0 1.0 1.0 0.0 1.0 0.0
8
0.0 1.0 0.0 1.0 1.0 0.0 1.0 0.0
8
0.0 1.0 1.0 0.0 1.0 0.0 1.0 0.0
8
0.0 1.0 1.0 0.0 0.0 1.0 0.0 1.0
8
1.0 0.0 0.0 1.0 1.0 0.0 1.0 0.0
8
0.0 1.0 1.0 0.0 1.0 0.0 1.0 0.0
8
0.220119 0.779881 0.569452 0.430548 0.943598 0.056402 0.745906 0.254094
8
0.0 1.0 0.0 1.0 1.0 0.0 1.0 0.0
8
0.0435851 0.956415 0.0404269 0.959573 0.771041 0.228959 0.903477 0.0965225
8
0.0 1.0 1.0 0.0 0.0 1.0 0.0 1.0
8
0.0 1.0 1.0 0.0 1.0 0.0 1.0 0.0
8
1.0 0.0 1.0 0.0 1.0 0.0 0.0 1.0
4
0.907264 0.0927359 0.84488 0.15512
8
0.0 1.0 0.0 1.0 1.0 0.0 0.0 1.0
8
0.0 1.0 1.0 0.0 1.0 0.0 1.0 0.0
8
1.0 0.0 1.0 0.0 0.0 1.0 1.0 0.0
8
0.805125 0.194875 0.858464 0.141536 0.86915 0.13085 0.713299 0.286701
8
0.0 1.0 0.0 1.0 1.0 0.0 0.0 1.0
8
1.0 0.0 0.0 1.0 1.0 0.0 0.0 1.0
8
1.0 0.0 0.0 1.0 1.0 0.0 1.0 0.0
8
1.0 0.0 1.0 0.0 0.0 1.0 0.0 1.0
8
1.0 0.0 1.0 0.0 0.0 1.0 0.0 1.0
8
0.0 1.0 0.0 1.0 1.0 0.0 1.0 0.0
8
0.94268 0.0573199 0.274516 0.725484 0.0345883 0.965412 0.325502 0.674498
8
1.0 0.0 1.0 0.0 0.0 1.0 1.0 0.0
8
0.0 1.0 0.0 1.0 0.0 1.0 1.0 0.0
8
1.0 0.0 0.0 1.0 1.0 0.0 1.0 0.0
8
0.0 1.0 0.0 1.0 1.0 0.0 1.0 0.0
8
0.770362 0.229638 0.470656 0.529344 0.84778 0.15222 0.664259 0.335741
8
1.0 0.0 1.0 0.0 0.0 1.0 1.0 0.0
8
0.519874 0.480126 0.00512622 0.994874 0.265527 0.734473 0.312147 0.687853
8
1.0 0.0 1.0 0.0 0.0 1.0 0.0 1.0
8
0.0 1.0 1.0 0.0 1.0 0.0 1.0 0.0
8
0.0 1.0 0.0 1.0 1.0 0.0 1.0 0.0
8
1.0 0.0 0.0 1.0 0.0 1.0 0.0 1.0
8
1.0 0.0 0.0 1.0 1.0 0.0 1.0 0.0
8
0.0 1.0 1.0 0.0 0.0 1.0 0.0 1.0
8
0.0 1.0 0.0 1.0 0.0 1.0 1.0 0.0
4
0.0 1.0 1.0 0.0
8
0.493284 0.506716 0.606516 0.393484 0.0701691 0.929831 0.421966 0.578034
8
0.958976 0.0410238 0.984176 0.0158243 0.795798 0.204202 0.618145 0.381855
8
1.0 0.0 0.0 1.0 0.0 1.0 0.0 1.0
8
0.88809 0.11191 0.237219 0.762781 0.734746 0.265254 0.0692142 0.930786
8
0.0 1.0 1.0 0.0 1.0 0.0 0.0 1.0
8
0.0 1.0 1.0 0.0 0.0 1.0 1.0 0.0
8
0.2476 0.7524 0.527026 0.472974 0.589195 0.410805 0.317769 0.682231
8
0.408016 0.591984 0.276746 0.723254 0.933168 0.0668323 0.203815 0.796185
8
0.950209 0.0497909 0.82437 0.17563 0.836463 0.163537 0.17705 0.82295
8
0.708402 0.291598 0.0651403 0.93486 0.151088 0.848912 0.443148 0.556852
8
0.0 1.0 1.0 0.0 1.0 0.0 1.0 0.0
8
0.0 1.0 1.0 0.0 1.0 0.0 0.0 1.0
8
0.0 1.0 1.0 0.0 0.0 1.0 0.0 1.0
8
0.986858 0.0131423 0.830395 0.169605 0.25368 0.74632 0.920025 0.0799745
8
0.0 1.0 0.0 1.0 0.0 1.0 1.0 0.0
8
1.0 0.0 1.0 0.0 1.0 0.0 0.0 1.0
8
0.0 1.0 0.0 1.0 0.0 1.0 1.0 0.0
8
0.0 1.0 0.0 1.0 1.0 0.0 1.0 0.0
8
1.0 0.0 0.0 1.0 1.0 0.0 1.0 0.0
8
1.0 0.0 0.0 1.0 0.0 1.0 1.0 0.0
8
0.0 1.0 1.0 0.0 0.0 1.0 1.0 0.0
8
0.793233 0.206767 0.152257 0.847743 0.0418853 0.958115 0.716768 0.283232
8
0.0 1.0 0.0 1.0 0.0 1.0 1.0 0.0
8
0.256158 0.743842 0.817065 0.182935 0.965229 0.0347708 0.691597 0.308403
8
0.840454 0.159546 0.7862 0.2138 0.989315 0.0106847 0.138056 0.861944
4
0.0812309 0.918769 0.266054 0.733946
8
0.0 1.0 1.0 0.0 0.0 1.0 1.0 0.0
8
0.0 1.0 0.0 1.0 0.0 1.0 1.0 0.0
8
0.959049 0.0409515 0.556663 0.443337 0.235358 0.764642 0.140505 0.859495
8
1.0 0.0 1.0 0.0 0.0 1.0 1.0 0.0
8
1.0 0.0 0.0 1.0 0.0 1.0 1.0 0.0
8
1.0 0.0 0.0 1.0 1.0 0.0 0.0 1.0
8
1.0 0.0 0.0 1.0 1.0 0.0 0.0 1.0
8
1.0 0.0 0.0 1.0 0.0 1.0 1.0 0.0
8
1.0 0.0 1.0 0.0 0.0 1.0 1.0 0.0
8
1.0 0.0 0.0 1.0 1.0 0.0 0.0 1.0
8
1.0 0.0 1.0 0.0 0.0 1.0 1.0 0.0
8
0.0 1.0 0.0 1.0 0.0 1.0 1.0 0.0
8
0.0 1.0 1.0 0.0 1.0 0.0 0.0 1.0
8
1.0 0.0 1.0 0.0 1.0 0.0 0.0 1.0
8
0.634574 0.365426 0.37481 0.62519 0.298346 0.701654 0.473657 0.526343
8
0.0 1.0 1.0 0.0 1.0 0.0 1.0 0.0
8
0.0192888 0.980711 0.24038 0.75962 0.455598 0.544402 0.954591 0.0454087
8
0.0 1.0 1.0 0.0 1.0 0.0 1.0 0.0
8
0.0 1.0 1.0 0.0 1.0 0.0 0.0 1.0
8
0.0 1.0 1.0 0.0 1.0 0.0 1.0 0.0
8
0.800721 0.199279 0.0505271 0.949473 0.370101 0.629899 0.0990671 0.900933
8
1.0 0.0 0.0 1.0 1.0 0.0 0.0 1.0
8
0.0 1.0 1.0 0.0 1.0 0.0 1.0 0.0
8
0.0 1.0 1.0 0.0 1.0 0.0 0.0 1.0
8
0.0 1.0 0.0 1.0 0.0 1.0 1.0 0.0
4
1.0 0.0 0.0 1.0
8
0.0 1.0 0.0 1.0 1.0 0.0 1.0 0.0
8
1.0 0.0 0.0 1.0 1.0 0.0 0.0 1.0
8
1.0 0.0 1.0 0.0 0.0 1.0 1.0 0.0
8
0.49881 0.50119 0.933263 0.0667374 0.417802 0.582198 0.0454486 0.954551
8
0.927024 0.0729758 0.683577 0.316423 0.713523 0.286477 0.112738 0.887262
8
1.0 0.0 1.0 0.0 1.0 0.0 0.0 1.0
8
0.977419 0.022581 0.393757 0.606243 0.519317 0.480683 0.109268 0.890732
8
1.0 0.0 0.0 1.0 0.0 1.0 0.0 1.0
8
0.878919 0.121081 0.313444 0.686556 0.830004 0.169996 0.785683 0.214317
8
0.727007 0.272993 0.284493 0.715507 0.921297 0.0787031 0.144809 0.855191
8
0.0 1.0 1.0 0.0 1.0 0.0 1.0 0.0
8
1.0 0.0 1.0 0.0 1.0 0.0 0.0 1.0
8
0.0 1.0 0.0 1.0 1.0 0.0 1.0 0.0
8
0.923047 0.0769528 0.627551 0.372449 0.2628 0.7372 0.467961 0.532039
8
1.0 0.0 0.0 1.0 1.0 0.0 1.0 0.0
8
0.0 1.0 1.0 0.0 1.0 0.0 1.0 0.0
8
0.746998 0.253002 0.223563 0.776437 0.0346556 0.965344 0.760517 0.239483
8
0.0 1.0 0.0 1.0 0.0 1.0 1.0 0.0
8
0.0 1.0 1.0 0.0 0.0 1.0 1.0 0.0
8
1.0 0.0 1.0 0.0 0.0 1.0 1.0 0.0
8
0.0 1.0 1.0 0.0 0.0 1.0 1.0 0.0
8
1.0 0.0 0.0 1.0 1.0 0.0 0.0 1.0
8
1.0 0.0 0.0 1.0 0.0 1.0 0.0 1.0
8
0.461919 0.538081 0.0269334 0.973067 0.23861 0.76139 0.729852 0.270148
8
0.0 1.0 1.0 0.0 1.0 0.0 1.0 0.0
4
0.161512 0.838488 0.716792 0.283208
8
1.0 0.0 1.0 0.0 0.0 1.0 1.0 0.0
8
0.0 1.0 0.0 1.0 0.0 1.0 1.0 0.0
8
0.0 1.0 0.0 1.0 1.0 0.0 0.0 1.0
8
0.0 1.0 1.0 0.0 0.0 1.0 1.0 0.0
8
0.0 1.0 1.0 0.0 0.0 1.0 1.0 0.0
8
0.990589 0.00941128 0.842448 0.157552 0.671604 0.328396 0.315018 0.684982
8
1.0 0.0 0.0 1.0 0.0 1.0 0.0 1.0
8
0.546831 0.453169 0.555034 0.444966 0.12802 0.87198 0.128929 0.871071
8
0.823441 0.176559 0.0289672 0.971033 0.381135 0.618865 0.0501403 0.94986
8
0.0 1.0 1.0 0.0 0.0 1.0 0.0 1.0
8
1.0 0.0 0.0 1.0 1.0 0.0 0.0 1.0
8
0.210038 0.789962 0.638664 0.361336 0.712088 0.287912 0.881642 0.118358
8
0.390488 0.609512 0.328782 0.671218 0.217908 0.782092 0.926161 0.0738385
8
1.0 0.0 0.0 1.0 1.0 0.0 0.0 1.0
8
0.0 1.0 0.0 1.0 0.0 1.0 1.0 0.0
8
0.0 1.0 1.0 0.0 0.0 1.0 0.0 1.0
8
0.419237 0.580763 0.704361 0.295639 0.185553 0.814447 0.674463 0.325537
8
1.0 0.0 0.0 1.0 1.0 0.0 1.0 0.0
8
0.94478 0.0552199 0.157769 0.842231 0.0949245 0.905076 0.162688 0.837312
8
1.0 0.0 1.0 0.0 0.0 1.0 0.0 1.0
8
0.0 1.0 0.0 1.0 1.0 0.0 0.0 1.0
8
0.832291 0.167709 0.428083 0.571917 0.470646 0.529354 0.00836799 0.991632
8
1.0 0.0 0.0 1.0 1.0 0.0 1.0 0.0
8
1.0 0.0 0.0 1.0 0.0 1.0 1.0 0.0
8
0.0 1.0 1.0 0.0 1.0 0.0 1.0 0.0